200
150
100
100
100
99
99
99
99
98
98
97
97
97
96
96
96
96
96
96
95
95
94
93
93
93
93
92
92
92
91
91
91
91
91
91
91
90
89
89
89
88
86
86
86
85
85
85
85
84
84
83
83
82
82
82
82
80
80
80
80
80
79
79
79
78
77
77
77
74
74
73
73
73
73
73
73
72
71
71
70
70
69
69
69
69
69
68
68
68
67
66
65
65
65
64
64
64
63
62
61
61
61
61
61
60
60
60
59
58
57
57
57
57
56
56
56
56
56
55
55
55
54
54
54
54
54
53
53
52
52
52
51
50
50
50
50
49
49
49
48
47
47
46
46
45
45
45
44
44
44
44
44
43
42
42
41
38
38
38
38
38
37
37
37
35
35
35
35
35
33
32
32
32
32
31
31
31
31
30
30
29
29
29
29
28
27
26
26
25
25
25
25
25
25
24
24
23
23
21
20
20
